60

 0   1   2   3   1   2   3   4   2   3   4   5   3   4   5   6   4   5   6   7   5   6   7   8   6   7   8   9   7   8   9  10   8   9  10  11   9  10  11  12  10  11  12  13  11  12  13  14  12  13  14  15  13  14  15  16  14  15  16  17  
 1   0   1   2   2   1   2   3   3   2   3   4   4   3   4   5   5   4   5   6   6   5   6   7   7   6   7   8   8   7   8   9   9   8   9  10  10   9  10  11  11  10  11  12  12  11  12  13  13  12  13  14  14  13  14  15  15  14  15  16  
 2   1   0   1   3   2   1   2   4   3   2   3   5   4   3   4   6   5   4   5   7   6   5   6   8   7   6   7   9   8   7   8  10   9   8   9  11  10   9  10  12  11  10  11  13  12  11  12  14  13  12  13  15  14  13  14  16  15  14  15  
 3   2   1   0   4   3   2   1   5   4   3   2   6   5   4   3   7   6   5   4   8   7   6   5   9   8   7   6  10   9   8   7  11  10   9   8  12  11  10   9  13  12  11  10  14  13  12  11  15  14  13  12  16  15  14  13  17  16  15  14  
 1   2   3   4   0   1   2   3   1   2   3   4   2   3   4   5   3   4   5   6   4   5   6   7   5   6   7   8   6   7   8   9   7   8   9  10   8   9  10  11   9  10  11  12  10  11  12  13  11  12  13  14  12  13  14  15  13  14  15  16  
 2   1   2   3   1   0   1   2   2   1   2   3   3   2   3   4   4   3   4   5   5   4   5   6   6   5   6   7   7   6   7   8   8   7   8   9   9   8   9  10  10   9  10  11  11  10  11  12  12  11  12  13  13  12  13  14  14  13  14  15  
 3   2   1   2   2   1   0   1   3   2   1   2   4   3   2   3   5   4   3   4   6   5   4   5   7   6   5   6   8   7   6   7   9   8   7   8  10   9   8   9  11  10   9  10  12  11  10  11  13  12  11  12  14  13  12  13  15  14  13  14  
 4   3   2   1   3   2   1   0   4   3   2   1   5   4   3   2   6   5   4   3   7   6   5   4   8   7   6   5   9   8   7   6  10   9   8   7  11  10   9   8  12  11  10   9  13  12  11  10  14  13  12  11  15  14  13  12  16  15  14  13  
 2   3   4   5   1   2   3   4   0   1   2   3   1   2   3   4   2   3   4   5   3   4   5   6   4   5   6   7   5   6   7   8   6   7   8   9   7   8   9  10   8   9  10  11   9  10  11  12  10  11  12  13  11  12  13  14  12  13  14  15  
 3   2   3   4   2   1   2   3   1   0   1   2   2   1   2   3   3   2   3   4   4   3   4   5   5   4   5   6   6   5   6   7   7   6   7   8   8   7   8   9   9   8   9  10  10   9  10  11  11  10  11  12  12  11  12  13  13  12  13  14  
 4   3   2   3   3   2   1   2   2   1   0   1   3   2   1   2   4   3   2   3   5   4   3   4   6   5   4   5   7   6   5   6   8   7   6   7   9   8   7   8  10   9   8   9  11  10   9  10  12  11  10  11  13  12  11  12  14  13  12  13  
 5   4   3   2   4   3   2   1   3   2   1   0   4   3   2   1   5   4   3   2   6   5   4   3   7   6   5   4   8   7   6   5   9   8   7   6  10   9   8   7  11  10   9   8  12  11  10   9  13  12  11  10  14  13  12  11  15  14  13  12  
 3   4   5   6   2   3   4   5   1   2   3   4   0   1   2   3   1   2   3   4   2   3   4   5   3   4   5   6   4   5   6   7   5   6   7   8   6   7   8   9   7   8   9  10   8   9  10  11   9  10  11  12  10  11  12  13  11  12  13  14  
 4   3   4   5   3   2   3   4   2   1   2   3   1   0   1   2   2   1   2   3   3   2   3   4   4   3   4   5   5   4   5   6   6   5   6   7   7   6   7   8   8   7   8   9   9   8   9  10  10   9  10  11  11  10  11  12  12  11  12  13  
 5   4   3   4   4   3   2   3   3   2   1   2   2   1   0   1   3   2   1   2   4   3   2   3   5   4   3   4   6   5   4   5   7   6   5   6   8   7   6   7   9   8   7   8  10   9   8   9  11  10   9  10  12  11  10  11  13  12  11  12  
 6   5   4   3   5   4   3   2   4   3   2   1   3   2   1   0   4   3   2   1   5   4   3   2   6   5   4   3   7   6   5   4   8   7   6   5   9   8   7   6  10   9   8   7  11  10   9   8  12  11  10   9  13  12  11  10  14  13  12  11  
 4   5   6   7   3   4   5   6   2   3   4   5   1   2   3   4   0   1   2   3   1   2   3   4   2   3   4   5   3   4   5   6   4   5   6   7   5   6   7   8   6   7   8   9   7   8   9  10   8   9  10  11   9  10  11  12  10  11  12  13  
 5   4   5   6   4   3   4   5   3   2   3   4   2   1   2   3   1   0   1   2   2   1   2   3   3   2   3   4   4   3   4   5   5   4   5   6   6   5   6   7   7   6   7   8   8   7   8   9   9   8   9  10  10   9  10  11  11  10  11  12  
 6   5   4   5   5   4   3   4   4   3   2   3   3   2   1   2   2   1   0   1   3   2   1   2   4   3   2   3   5   4   3   4   6   5   4   5   7   6   5   6   8   7   6   7   9   8   7   8  10   9   8   9  11  10   9  10  12  11  10  11  
 7   6   5   4   6   5   4   3   5   4   3   2   4   3   2   1   3   2   1   0   4   3   2   1   5   4   3   2   6   5   4   3   7   6   5   4   8   7   6   5   9   8   7   6  10   9   8   7  11  10   9   8  12  11  10   9  13  12  11  10  
 5   6   7   8   4   5   6   7   3   4   5   6   2   3   4   5   1   2   3   4   0   1   2   3   1   2   3   4   2   3   4   5   3   4   5   6   4   5   6   7   5   6   7   8   6   7   8   9   7   8   9  10   8   9  10  11   9  10  11  12  
 6   5   6   7   5   4   5   6   4   3   4   5   3   2   3   4   2   1   2   3   1   0   1   2   2   1   2   3   3   2   3   4   4   3   4   5   5   4   5   6   6   5   6   7   7   6   7   8   8   7   8   9   9   8   9  10  10   9  10  11  
 7   6   5   6   6   5   4   5   5   4   3   4   4   3   2   3   3   2   1   2   2   1   0   1   3   2   1   2   4   3   2   3   5   4   3   4   6   5   4   5   7   6   5   6   8   7   6   7   9   8   7   8  10   9   8   9  11  10   9  10  
 8   7   6   5   7   6   5   4   6   5   4   3   5   4   3   2   4   3   2   1   3   2   1   0   4   3   2   1   5   4   3   2   6   5   4   3   7   6   5   4   8   7   6   5   9   8   7   6  10   9   8   7  11  10   9   8  12  11  10   9  
 6   7   8   9   5   6   7   8   4   5   6   7   3   4   5   6   2   3   4   5   1   2   3   4   0   1   2   3   1   2   3   4   2   3   4   5   3   4   5   6   4   5   6   7   5   6   7   8   6   7   8   9   7   8   9  10   8   9  10  11  
 7   6   7   8   6   5   6   7   5   4   5   6   4   3   4   5   3   2   3   4   2   1   2   3   1   0   1   2   2   1   2   3   3   2   3   4   4   3   4   5   5   4   5   6   6   5   6   7   7   6   7   8   8   7   8   9   9   8   9  10  
 8   7   6   7   7   6   5   6   6   5   4   5   5   4   3   4   4   3   2   3   3   2   1   2   2   1   0   1   3   2   1   2   4   3   2   3   5   4   3   4   6   5   4   5   7   6   5   6   8   7   6   7   9   8   7   8  10   9   8   9  
 9   8   7   6   8   7   6   5   7   6   5   4   6   5   4   3   5   4   3   2   4   3   2   1   3   2   1   0   4   3   2   1   5   4   3   2   6   5   4   3   7   6   5   4   8   7   6   5   9   8   7   6  10   9   8   7  11  10   9   8  
 7   8   9  10   6   7   8   9   5   6   7   8   4   5   6   7   3   4   5   6   2   3   4   5   1   2   3   4   0   1   2   3   1   2   3   4   2   3   4   5   3   4   5   6   4   5   6   7   5   6   7   8   6   7   8   9   7   8   9  10  
 8   7   8   9   7   6   7   8   6   5   6   7   5   4   5   6   4   3   4   5   3   2   3   4   2   1   2   3   1   0   1   2   2   1   2   3   3   2   3   4   4   3   4   5   5   4   5   6   6   5   6   7   7   6   7   8   8   7   8   9  
 9   8   7   8   8   7   6   7   7   6   5   6   6   5   4   5   5   4   3   4   4   3   2   3   3   2   1   2   2   1   0   1   3   2   1   2   4   3   2   3   5   4   3   4   6   5   4   5   7   6   5   6   8   7   6   7   9   8   7   8  
10   9   8   7   9   8   7   6   8   7   6   5   7   6   5   4   6   5   4   3   5   4   3   2   4   3   2   1   3   2   1   0   4   3   2   1   5   4   3   2   6   5   4   3   7   6   5   4   8   7   6   5   9   8   7   6  10   9   8   7  
 8   9  10  11   7   8   9  10   6   7   8   9   5   6   7   8   4   5   6   7   3   4   5   6   2   3   4   5   1   2   3   4   0   1   2   3   1   2   3   4   2   3   4   5   3   4   5   6   4   5   6   7   5   6   7   8   6   7   8   9  
 9   8   9  10   8   7   8   9   7   6   7   8   6   5   6   7   5   4   5   6   4   3   4   5   3   2   3   4   2   1   2   3   1   0   1   2   2   1   2   3   3   2   3   4   4   3   4   5   5   4   5   6   6   5   6   7   7   6   7   8  
10   9   8   9   9   8   7   8   8   7   6   7   7   6   5   6   6   5   4   5   5   4   3   4   4   3   2   3   3   2   1   2   2   1   0   1   3   2   1   2   4   3   2   3   5   4   3   4   6   5   4   5   7   6   5   6   8   7   6   7  
11  10   9   8  10   9   8   7   9   8   7   6   8   7   6   5   7   6   5   4   6   5   4   3   5   4   3   2   4   3   2   1   3   2   1   0   4   3   2   1   5   4   3   2   6   5   4   3   7   6   5   4   8   7   6   5   9   8   7   6  
 9  10  11  12   8   9  10  11   7   8   9  10   6   7   8   9   5   6   7   8   4   5   6   7   3   4   5   6   2   3   4   5   1   2   3   4   0   1   2   3   1   2   3   4   2   3   4   5   3   4   5   6   4   5   6   7   5   6   7   8  
10   9  10  11   9   8   9  10   8   7   8   9   7   6   7   8   6   5   6   7   5   4   5   6   4   3   4   5   3   2   3   4   2   1   2   3   1   0   1   2   2   1   2   3   3   2   3   4   4   3   4   5   5   4   5   6   6   5   6   7  
11  10   9  10  10   9   8   9   9   8   7   8   8   7   6   7   7   6   5   6   6   5   4   5   5   4   3   4   4   3   2   3   3   2   1   2   2   1   0   1   3   2   1   2   4   3   2   3   5   4   3   4   6   5   4   5   7   6   5   6  
12  11  10   9  11  10   9   8  10   9   8   7   9   8   7   6   8   7   6   5   7   6   5   4   6   5   4   3   5   4   3   2   4   3   2   1   3   2   1   0   4   3   2   1   5   4   3   2   6   5   4   3   7   6   5   4   8   7   6   5  
10  11  12  13   9  10  11  12   8   9  10  11   7   8   9  10   6   7   8   9   5   6   7   8   4   5   6   7   3   4   5   6   2   3   4   5   1   2   3   4   0   1   2   3   1   2   3   4   2   3   4   5   3   4   5   6   4   5   6   7  
11  10  11  12  10   9  10  11   9   8   9  10   8   7   8   9   7   6   7   8   6   5   6   7   5   4   5   6   4   3   4   5   3   2   3   4   2   1   2   3   1   0   1   2   2   1   2   3   3   2   3   4   4   3   4   5   5   4   5   6  
12  11  10  11  11  10   9  10  10   9   8   9   9   8   7   8   8   7   6   7   7   6   5   6   6   5   4   5   5   4   3   4   4   3   2   3   3   2   1   2   2   1   0   1   3   2   1   2   4   3   2   3   5   4   3   4   6   5   4   5  
13  12  11  10  12  11  10   9  11  10   9   8  10   9   8   7   9   8   7   6   8   7   6   5   7   6   5   4   6   5   4   3   5   4   3   2   4   3   2   1   3   2   1   0   4   3   2   1   5   4   3   2   6   5   4   3   7   6   5   4  
11  12  13  14  10  11  12  13   9  10  11  12   8   9  10  11   7   8   9  10   6   7   8   9   5   6   7   8   4   5   6   7   3   4   5   6   2   3   4   5   1   2   3   4   0   1   2   3   1   2   3   4   2   3   4   5   3   4   5   6  
12  11  12  13  11  10  11  12  10   9  10  11   9   8   9  10   8   7   8   9   7   6   7   8   6   5   6   7   5   4   5   6   4   3   4   5   3   2   3   4   2   1   2   3   1   0   1   2   2   1   2   3   3   2   3   4   4   3   4   5  
13  12  11  12  12  11  10  11  11  10   9  10  10   9   8   9   9   8   7   8   8   7   6   7   7   6   5   6   6   5   4   5   5   4   3   4   4   3   2   3   3   2   1   2   2   1   0   1   3   2   1   2   4   3   2   3   5   4   3   4  
14  13  12  11  13  12  11  10  12  11  10   9  11  10   9   8  10   9   8   7   9   8   7   6   8   7   6   5   7   6   5   4   6   5   4   3   5   4   3   2   4   3   2   1   3   2   1   0   4   3   2   1   5   4   3   2   6   5   4   3  
12  13  14  15  11  12  13  14  10  11  12  13   9  10  11  12   8   9  10  11   7   8   9  10   6   7   8   9   5   6   7   8   4   5   6   7   3   4   5   6   2   3   4   5   1   2   3   4   0   1   2   3   1   2   3   4   2   3   4   5  
13  12  13  14  12  11  12  13  11  10  11  12  10   9  10  11   9   8   9  10   8   7   8   9   7   6   7   8   6   5   6   7   5   4   5   6   4   3   4   5   3   2   3   4   2   1   2   3   1   0   1   2   2   1   2   3   3   2   3   4  
14  13  12  13  13  12  11  12  12  11  10  11  11  10   9  10  10   9   8   9   9   8   7   8   8   7   6   7   7   6   5   6   6   5   4   5   5   4   3   4   4   3   2   3   3   2   1   2   2   1   0   1   3   2   1   2   4   3   2   3  
15  14  13  12  14  13  12  11  13  12  11  10  12  11  10   9  11  10   9   8  10   9   8   7   9   8   7   6   8   7   6   5   7   6   5   4   6   5   4   3   5   4   3   2   4   3   2   1   3   2   1   0   4   3   2   1   5   4   3   2  
13  14  15  16  12  13  14  15  11  12  13  14  10  11  12  13   9  10  11  12   8   9  10  11   7   8   9  10   6   7   8   9   5   6   7   8   4   5   6   7   3   4   5   6   2   3   4   5   1   2   3   4   0   1   2   3   1   2   3   4  
14  13  14  15  13  12  13  14  12  11  12  13  11  10  11  12  10   9  10  11   9   8   9  10   8   7   8   9   7   6   7   8   6   5   6   7   5   4   5   6   4   3   4   5   3   2   3   4   2   1   2   3   1   0   1   2   2   1   2   3  
15  14  13  14  14  13  12  13  13  12  11  12  12  11  10  11  11  10   9  10  10   9   8   9   9   8   7   8   8   7   6   7   7   6   5   6   6   5   4   5   5   4   3   4   4   3   2   3   3   2   1   2   2   1   0   1   3   2   1   2  
16  15  14  13  15  14  13  12  14  13  12  11  13  12  11  10  12  11  10   9  11  10   9   8  10   9   8   7   9   8   7   6   8   7   6   5   7   6   5   4   6   5   4   3   5   4   3   2   4   3   2   1   3   2   1   0   4   3   2   1  
14  15  16  17  13  14  15  16  12  13  14  15  11  12  13  14  10  11  12  13   9  10  11  12   8   9  10  11   7   8   9  10   6   7   8   9   5   6   7   8   4   5   6   7   3   4   5   6   2   3   4   5   1   2   3   4   0   1   2   3  
15  14  15  16  14  13  14  15  13  12  13  14  12  11  12  13  11  10  11  12  10   9  10  11   9   8   9  10   8   7   8   9   7   6   7   8   6   5   6   7   5   4   5   6   4   3   4   5   3   2   3   4   2   1   2   3   1   0   1   2  
16  15  14  15  15  14  13  14  14  13  12  13  13  12  11  12  12  11  10  11  11  10   9  10  10   9   8   9   9   8   7   8   8   7   6   7   7   6   5   6   6   5   4   5   5   4   3   4   4   3   2   3   3   2   1   2   2   1   0   1  
17  16  15  14  16  15  14  13  15  14  13  12  14  13  12  11  13  12  11  10  12  11  10   9  11  10   9   8  10   9   8   7   9   8   7   6   8   7   6   5   7   6   5   4   6   5   4   3   5   4   3   2   4   3   2   1   3   2   1   0  

 0   0  17   1   0   5   1   0   0   0   1   1   0  68   0   0   1   0   0   1   1  92   0   0   0   0   1   0   1   0   0   0   0  44  39  10   0   0   0   0   0   0   0   6   0   0   1   0   0   0   0   3   0   8   4  28   0   0   0  13  
 0   0  15   1  16   7   1   0   1   1   6   0   2   1   1   0   0   0   0   1   0   0   0   0   0   6   1   0   1  54  38   1   1   0   1   7   0   0  10   1   1   1   1   1   0   6   0   0   4   0   0   9   0   0   0  42   8   0   0   0  
12   1   0   1  28  10  29   0   1   1   1   1   2  12  53   1   0   0   0   1   0   0   0   0   0   1   5   0  98   2  30   1   1   0  10   1   0  50   6   1  87   1   1   6   0   1   0   0  51   1   0   6   0   1   1   1   1   0  66  19  
10   3   1   0   1   1   1   0  77   9   2  40  45   1   1  35   4   0   0  43   0   0   0   0   0   0  97   0   1   0  17   1   1   0   1   3   0   0   1   1   4  12   1  39   0   1   0   0   2  14   0   1   0   3   1  65   0   0   1  35  
 0   1   1   1   0   2  48   0   0  53   0   0  77   1   0   0   0   0   0   0   0   0   0   0   0  68   0   0   0   1   1   1   1   0  25   1   0   0   4   1   1   1   0   0   0   1   0   0   1   0   0   0   0   0   0   0   4   0   0   0  
60  12   1   2   1   0   1   0  42   1  20   1   1   5  19   1   0   0   0   1   0   0   0   0   0  28   1   0   1   1  99   1  67   0   1   1   0  85   1   1   1  62   1  36   0  36   0   0   1   1   0  54   0   1   1   4  58   0   0  11  
 1   9  52   3   1  22   0   0   1   3  15  26  34   1   0   0  34   0   0  26   0   0   0   0   0   1   1   0   1   0   1   3  77   0   1   1   0   0  12   1  26   1   1  67   0   1   0   0  51   0   0   1   0  39   1  66  55   0   0  38  
 0   0   0   0   0   0   0   0  10   0   0   0   0   0   1   5   0   1   4   0   0   0  29  16  12   0   0  14   1   0   1   0   2   0   0   0   0   1   8   0   0   0   1   0  26   0   0  46   0  51   1   0   1   0   0   0   0   1   1   0  
 0   4   4  14   0  32   1   5   0   1   1   2   8   7  17  76   0   0   1   1   0   0   0   0   1   0   1   1  50  27   1   1  70   0   4  48   0   8   1  18  63   1   1   0   7   1   0   1   2   5  11   1   1   1   0   1   0   0   1   0  
 0   1  10   1   2  15  32   0  42   0   3   1   1  15   1  59   0   0   4   1   0   0   0   0   1   1   4  98  45  32   1   1   1   0  82  53   0   1   1   1  40   2  11   0  82   1   0   0   1   1   0   1   0   5   6   1   1   0   1   5  
38  12   1  80   0  41  98   0  66   1   0  23   1  59   2   1   0   0   0   1  24   0   0   0  15   0   1   1  57   1  56   0   1   1   6  30   0   0   5   1   1   1   1   1   0   1   1  88   1   2   0   9   1   8  26  64   0   0   1   1  
 1   0   1  11   0   1   1   0  16  49  56   0  38   2  15   1   0   0   0   1  24  52   0   0  69   0  19   0   1   0  11   0   0   1  34   1   1   0   1  11  84  26   1  63   0  90   1  93   0   5   0   1  28  39   1   1   0   0   1   9  
 0   1  32   1   1   6  12   0  49   5   1  33   0   1   1  60   0   0   0   1   0   0   0   0   0  83   1   1  60   1   1  84  43   0   1   1   0   1   1   1   1   1   1   0   1   1   0   0   1  75   0   1   0   9   0   9   1   0   1   0  
34   1   1   1   1   1  93   0  84  88   1  11   1   0   1   0   1   0   0  33   0   0   0   0   0   1  21   0  31   1   1  46  53   0   1  45   0   0   1   6   6   1  38  46   0  22   0   0   1   0   0  33   0  48   1   4  77   0   0   0  
 0   8   1   1   0  10   0  10   1   1  95   1  12   1   0  50   0   1   1  21   0   0   1   1   1   0  20   1   1   1   1   0   1   0   0   0   0   8   1   1   6  35   1   0   1  60   0   1   0   1  17  70   2   1   0   2   0   2   1   0  
 0   0   1   6   0   7   0  13   2  15  13  15  94   0   1   0   0  13  12   1   8   0  51   1   1   0   1  14   1   1   1   0  37   0   0   0   0   9  32  16   1  20   1   0   5   1   0  14   0   3  94   1  94   1   0  26   0   1   1   0  
80   0   0  13   0   0  31   0   0   0   0   0   0  26   0   0   0   0   0   1   0   0   0   0   0   0  12   0   0   0   0   0   0   0   1   1   0   0   0   0   0   0   0   1   0   0   0   0   1   0   0   0   0   0  64   1   0   0   0   1  
 0   0   0   0   0   0   0  33   0   0   0   0   0   0   2  73   0   0   1   0   0   0   1   1   1   0   0  51   0   1   1   0  79   0   0   0   0   1   0   0   0   0  69   0  32   0   0   1   0  14   2   0   0   0   0   0   0   2   1   0  
 0   0   0   0   0   0   0   8   6  46   0   0   0   0   1   1   0  28   0   0   0   0   1  58  10   0   0  26   1   1   4   0   1   0   0   0   0  84   1   0   0  45   1   0   7   0   0   4   0  24  61   0  82   0   0   0   0  17  12   0  
 1   7   7   1   0   4   2   0   1   1   1   1  62   1  12  99   1   0   0   0   0   0   0   0   0   0  73   0   1   0   7   1   1   0   1   1   0   0   1   1   2  86  16   1   0   1   1   0   2  32   0   1   0  76   1  12   0   0   1   1  
49   0   0   0   0   0   0   0   0   0  21  21   0   0   0   1   0   0   0   0   0   1   0   0   1   0  24   0  41   0   0   0   0   1   0   0  10   0   0   0   0   0   1   0   0   0   1   9   0   0   0  17   1   1  11   0   0   0  94   1  
13   0   0   0   0   0   0   0   0   0   0   1   0   0   0   0   0   0   0   0  85   0   0   0   0   0  75   0   0   0   0   0   0  43   0   0   1   0   0   0   0   0   0   0   0   0   1   0   0   0   0   1   0   1   3   0   0   0   0   1  
 0   0   0   0   0   0   0   1   0   0   0   0   0   0   1  13   0  46   1   0   0   0   0   6  23   0   0  94   0   0   0   0   0   0   0   0   0   1   0   0   0   0   0   0   1   0   0  13   0  86   5   0   1   0   0   0   0   7   1   0  
 0   0   0   0   0   0   0  84   0   0   0   0   0   0  18   2   0   8  84   0   0   0   1   0   1   0   0   5   0  47   1   0   4   0   0   0   0  50   0   0   0   0   1   0   1   0   0  50   0   1   1   0   8   0   0   0   0  77   1   0  
 0   0   0   0   0   0   0   2  15   3   1   1   0   0   4  78   0  11   1   0   1   0   1  10   0   0   0   1  10   0   1   0  55   0   0   0   0  31   1   0   0   0   1   0   1   0   0   3   0   1   1  74   1  71   0   0   0   1   1   0  
 0  75  25   0   7   1  45   0   0   1   0   0   5   1   0   0   0   0   0   0   0   0   0   0   0   0   0   0   0  54  28  54  82   0  94   1   0   0   1   1  57   6   0   0   0  52   0   0  40   0   0   0   0   0   0   0   1   0   0   0  
 1  87  50   5   0   6  48   0  14   1   1  28   1   1   1   1  83   0   0   1  13   1   0   0   0   0   0   0   1   0   0   0   0   6  44  15   1   0   1   5   1   0   1   1   0   1   1   0   0   0   0  52   3   1  25   1   0   0   9  11  
 0   0   0   0   0   0   0   1   1  29   6   0   1   0   3  36   0   1  10   0   0   0   1   1   3   0   0   0   7   1   1   0  10   0   0   0   0   1  96   0   1  82   1   0   1   0   0  68   0   1   1   0  45   0   0   0   0   1   1   0  
 1  12   1   1   0   1   1   3  82  85   1  31   9   3   1   7   0   0  83   1   1   0   0   0   3   0   1  54   0   1   1   0  40   0   1   1   0   4   1   1   1   4  23   0  14  37   0  38   1   1  23   1  24   1  49   1   0   0   1  71  
 0   1   1   0   3   1   0   0   1  11  46   0  58  51   1   1   0   1   1   0   0   0   0   1   0   1   0   2   1   0  18  28   2   0   0   1   0   1   5  22  23  43   1   0   1  48   0   0   2   1  35   0   0   0   0   1   4   1   1   0  
 0   1   1  25  49  61   1   1   2   1   1   5  11   1   4   1   0   1   1   1   0   0   0   1  27  70   0   1   1   6   0   1   1   0  46  94   0   1  80   3   1   1   2   0   1   1   0   0  94  34   1  24   0   1   0   1   2   1   1   0  
 0  99  10  58  10   1   2   0   1   1   0   0   1  37   0   0   0   0   0   1   0   0   0   0   0   1   0   0   0   1   1   0  12   0   1   5   0   0  15   1   1  40   0   3   0   4   0   0   1   0   0   0   0   0   0   1   1   0   0   0  
 0   1   1  30   1   2   9   1   4  11   1   0   1   2   1   1   0   1   1   7   0   0   0  50   1   1   0   6   1   1   1  70   0   0   1   2   0  11  30   5   1  51  16   0   1   4   0   0  38  39  18   9   0   4   0   1   1  30   2   0  
 1   0   0   0   0   0   0   0   0   0  17  33   0   0   0   0   0   0   0   0   2   1   0   0   0   0   1   0   0   0   0   0   0   0   0   0  66   0   0   0   0   0   0   0   0   0   1   0   0   0   0   1  24   9   1   0   0   0   0   1  
 1   1  38   2   7  54  60   0  86   1   1   1   1   3   0   0   1   0   0   1   0   0   0   0   0   1   1   0   1   0   1  22   1   0   0   9   0   0   1   9   1   1   2  13   0   3   0   0   1   0   0   1   0   1   1  51   0   0   0   8  
 1  25   3   1   1  11   1   0   1   1   1   1  25   2   0   0   5   0   0   2   0   0   0   0   0   1  40   0   1  33   7  12  43   0   7   0   0   0  50   1   1   1   1  46   0   3   0   0   1   0   0  44   0   2  19  97   3   0   0   1  
 0   0   0   0   0   0   0   0   0   0   0  26   0   0   0   0   0   0   0   0  16   1   0   0   0   0  17   0   0   0   0   0   0   2   0   0   0   0   0   0   0   0   0   0   0   0   1   0   0   0   0   0   5  46  75   0   0   0   0  13  
 0   0  69   0   0   1   0  12  11   1   0   0   1   0  33  99   0   1   1   0   0   0  22   1  68   0   0   4   6   9   2   0   1   0   0   0   0   0   5   1  30  67   5   0  24   1   0   0   0  62  58   0   0   0   0   0   0   1   1   0  
 0   6   1   1  47  45  66   1  15   1   2  17   5  99   1  79   0   0   9  34   0   0   0   0   1   9   1   1   1   1  19  47  39   0   1   4   0   1   0   1  47   1  59   0   1   5   0   0   1  39   0  58   1  12   1  23   0   0   4  91  
 0  29   1   3   1  34   1   0  65   1  18  23  50   1   2  11   0   0   0   1   0   0   0   0   0   1   1   0   1   1  91  67   1   0   4   1   0   2   1   0   1   1   1   0   0   1   0   0  52  62   0  13   0   1   0  82   1   0   0   0  
 0  61   1   3   1   1   1   0   1   9   7   1   1   1   7   2   0   0   0  86   0   0   0   0   0  27   1  72   1   7   1  47   3   0  12   1   0   1  89  12   0  12  11   0  86   2   0   0   1   1   0  76   0  45   0  61   1   0  37   0  
 0   1   2   1   1  76   1   0   1   1   1   1   1   6  98  31   0   0   1   1   0   0   0   0   0   2   0   1   1   2   7  14  40   0   1   1   0   1   1  40   1   0  47   0  46   3   0   0  32   1   0  67   0   1   0   2   1   0   7   0  
 0   2   1   1   0   1   5  23   2  39  74  18   1  69   1   5   0   1   1  82  30   0   0   1   1   0  55   1  91  12  12   0   1   0  19  13   0  33   1   6   6   1   0   0  48   1   0  30   1  14   3   1   1   1   0   1   0  12   1   0  
 1   1   1  53   0   4   1   0   0   0  51  50   0  11   0   0   1   0   0   1   0   0   0   0   0   0   1   0   0   0   0   1   0   0   7   1   0   0   0   0   0   0   0   0   0  15   0   0   1   0   0   1   0   0   1  41   0   0   0  50  
 0   0   0   0   0   0   0   1   1  11   0   0  16   0   1  45   0  30   1   0   0   0  58   1  66   0   0  70   1  14   1   0   1   0   0   0   0  38  11   0   1   1  86   0   0   0   0  88   0  25  22   0   0   0   0   0   0   1   1   0  
 0  17   1   4  72  13   1   0   1  42   9  57   1   1   1   3   0   0   0   1   0   0   0   0   0   1   1   0   1  42  34   1   2   0  11  24   0  48  13  36  17   1   2   4   0   0   0   0   4  29   0   1   0   1   0  27  76   0   0   0  
98   0   0   0   0   0   0   0   0   0   1   1   0   0   0   0   0   0   0  38   1   1   0   0   0   0  24   0   0   0   0   0   0  84   0   0   2   0   0   0   0   0   0   0   0   0   0   0   0   0   0   7  40   1   1   0   0   0   0  10  
 0   0   0   0   0   0   0  24   1   0   5   1   0   0   1   1   0  40   1   0   1   0  91  19  23   0   0  53   1   0   0   0   0   0   0   0   0   0   0   0   0   0  51   0  26   0   0   0   0   1  14   1  71   1   0   0   0  18  89   0  
 0  70   4   1  67   1   2   0   1   1  32   0   2  24   0   0   1   0   0  28   0   0   0   0   0   1   0   0  48   2   1   1  10   0   1  92   0   0   1   9   1  16   1   4   0   1   0   0   0   0   0   0   0   0   0  68   5   0   0   0  
 0   0   2   1   0   1   0   4   1  31   7  54   1   0   1   1   0   1   1  22   0   0  38   1   1   0   0  55   1   1   1   0  15   0   0   0   0   1   1  19   7   1   4   0  75   1   0  19   0   0  31  26   3   1   0   1   0  71   2   0  
 0   0   0   0   0   0   0   5  35   0   0   0   0   0   1  90   0   1   1   0   0   0  59  79  65   0   0   1  65  41  25   0  56   0   0   0   0   1   0   0   0   0   1   0   1   0   0  72   0   1   0   0  17   0   0   0   0  14  16   0  
 1   2   1   1   0  24  53   0  87   1   1   3  27   4   3   1   0   0   0   1   1  22   0   0  72   0  42   0  37   0   1   0   3   1  62   1   0   0  27   1   1   1  56   1   0   1   3   1   0   1   0   0   1   2   1   8   0   0  10   1  
 0   0   0   0   0   0   0   1   1   0   1   1   0   0  15   1   0   0   1   0   2   0   4  21   1   0  30   1  34   0   0   0   0   1   0   0   1   0   1   0   0   0   2   0   0   0  24  32   0   1  50   1   0   1   0   0   0   1   1   0  
 1   0  11   1   0   1   1   0   1   1   1   1   2   1   3  10   0   0   0   1   7  65   0   0  68   0   1   0  47   0   1   0   1  60   2   3  14   0  20   1   1   1   2   0   0   1  38  80   0   1   0  88   2   0  31   1   0   0  54   1  
 1   0   1   6   0   1   1   0   0   1   1  84   0   5   0   0   1   0   0   4  70   2   0   0   0   0   1   0  16   0   0   0   0   1   1  37  24   0   1   0   0   0   0   1   0   0   3   0   0   0   0   1   0  75   0  16   0   0   0   1  
84  30  92   1   0   9   5   0  76   1   5   2  10  16   1   3   1   0   0  46   0   0   0   0   0   0  34   0   1   1   1   1   2   0  52   9   0   0   7  16   8   1   1   1   0   1   0   0   4   1   0   9   0   1   4   0   0   0   1  18  
 0   1   1   0   1   1   1   0   0  30   0   0   1  96   0   0   0   0   0   0   0   0   0   0   0   1   0   0   0  42   2   3  18   0   0   1   0   0   0   3  58  15   0   0   0  54   0   0   1   0   0   0   0   0   0   0   0   0   0   0  
 0   0   0   0   0   0   0   9   0   0   0   0   0   0   3  39   0   1  49   0   0   0   1   1   1   0   0   1   0   1   1   0   1   0   0   0   0   1   0   0   0   0  87   0  41   0   0   1   0   1   1   0  33   0   0   0   0   0   1   0  
 0   0   2  41   0   0   0   1  56  10   1   1  73   0  21  25   0   1   1   1   3   0   1  16   1   0   1   1   1   1  99   0   6   0   0   0   0  15  77   0   3  18   1   0   1   0   0  10   0  20   7   1   1   1   0   1   0   1   0   0  
 1   0  22   1   0  50   1   0   0   1  23   1   0   0   0   0   6   0   0   1   4  25   0   0   0   0   1   0   1   0   0   0   0   1   1  19   1   0  92   0   0   0   0   1   0   0   1   0   0   0   0   1   0  97   1   1   0   0   0   0  
